instances/shortest_path/discrete_knapsack_uncertainty/nohadani_5_5.lp
\ Model nohadani_5_5
\ LP format - for model browsing. Use MPS format to capture full model detail.
\ Signature: 0xa1d49c5c4aa7c587
Minimize
  50.44799302251776 y[0,1] + 22.13594362117865 y[0,2]
   + 8.246211251235321 y[0,3] + 50.44799302251776 y[1,0]
   + 30.80584360149873 y[1,2] + 55.7584074378026 y[1,3]
   + 104.651803615609 y[1,4] + 22.13594362117865 y[2,0]
   + 30.80584360149873 y[2,1] + 29.42787793912432 y[2,3]
   + 94.11163583744573 y[2,4] + 8.246211251235321 y[3,0]
   + 55.7584074378026 y[3,1] + 29.42787793912432 y[3,2]
   + 104.651803615609 y[4,1] + 94.11163583744573 y[4,2] + x[0,1] + x[0,2]
   + x[0,3] + x[1,0] + x[1,2] + x[1,3] + x[1,4] + x[2,0] + x[2,1] + x[2,3]
   + x[2,4] + x[3,0] + x[3,1] + x[3,2] + x[4,1] + x[4,2]
   + 5.044799302251776 r[0,1] + 2.213594362117866 r[0,2]
   + 0.8246211251235321 r[0,3] + 5.044799302251776 r[1,0]
   + 3.080584360149873 r[1,2] + 5.57584074378026 r[1,3]
   + 10.4651803615609 r[1,4] + 2.213594362117866 r[2,0]
   + 3.080584360149873 r[2,1] + 2.942787793912432 r[2,3]
   + 9.411163583744573 r[2,4] + 0.8246211251235321 r[3,0]
   + 5.57584074378026 r[3,1] + 2.942787793912432 r[3,2]
   + 10.4651803615609 r[4,1] + 9.411163583744573 r[4,2]
Subject To
 flow_cons_inner_nodes[0]: - y[0,1] - y[0,2] - y[0,3] + y[1,0] + y[2,0]
   + y[3,0] = 0
 flow_cons_inner_nodes[1]: y[0,1] - y[1,0] - y[1,2] - y[1,3] - y[1,4]
   + y[2,1] + y[3,1] + y[4,1] = 0
 flow_cons_inner_nodes[2]: y[0,2] + y[1,2] - y[2,0] - y[2,1] - y[2,3]
   - y[2,4] + y[3,2] + y[4,2] = 0
 flow_cons_source: - y[0,3] - y[1,3] - y[2,3] + y[3,0] + y[3,1] + y[3,2]
   = 1
 flow_cons_target: y[1,4] + y[2,4] - y[4,1] - y[4,2] = 1
 primal_lower: 4.631490733983563 x[0,1] + 3.104466931702093 x[0,2]
   + 4.347588720256277 x[0,3] + 1.923832824927723 x[1,0]
   + 5.091886390572257 x[1,2] + 3.458204153181837 x[1,3]
   + 2.977568335433882 x[1,4] + 0.368145482097207 x[2,0]
   + 3.769856364162732 x[2,1] + 3.066478828006566 x[2,3]
   + 5.592911123256662 x[2,4] + 0.6602382431307174 x[3,0]
   + 0.7409499170531574 x[3,1] + 4.445043005563042 x[3,2]
   + 4.691754110799581 x[4,1] + 2.536280046350533 x[4,2] + u[0,1]
   + 89 u[0,2] + 83 u[0,3] + 12 u[1,0] + 9 u[1,2] + 39 u[1,3] + 66 u[1,4]
   + 89 u[2,0] + 58 u[2,1] + 23 u[2,3] + 21 u[2,4] + 68 u[3,0] + 89 u[3,1]
   + 93 u[3,2] + 66 u[4,1] + 46 u[4,2] <= 93
 mccormick1[0,1]: - u[0,1] + r[0,1] <= 0
 mccormick1[0,2]: - u[0,2] + r[0,2] <= 0
 mccormick1[0,3]: - u[0,3] + r[0,3] <= 0
 mccormick1[1,0]: - u[1,0] + r[1,0] <= 0
 mccormick1[1,2]: - u[1,2] + r[1,2] <= 0
 mccormick1[1,3]: - u[1,3] + r[1,3] <= 0
 mccormick1[1,4]: - u[1,4] + r[1,4] <= 0
 mccormick1[2,0]: - u[2,0] + r[2,0] <= 0
 mccormick1[2,1]: - u[2,1] + r[2,1] <= 0
 mccormick1[2,3]: - u[2,3] + r[2,3] <= 0
 mccormick1[2,4]: - u[2,4] + r[2,4] <= 0
 mccormick1[3,0]: - u[3,0] + r[3,0] <= 0
 mccormick1[3,1]: - u[3,1] + r[3,1] <= 0
 mccormick1[3,2]: - u[3,2] + r[3,2] <= 0
 mccormick1[4,1]: - u[4,1] + r[4,1] <= 0
 mccormick1[4,2]: - u[4,2] + r[4,2] <= 0
 mccormick2[0,1]: - y[0,1] + r[0,1] <= 0
 mccormick2[0,2]: - y[0,2] + r[0,2] <= 0
 mccormick2[0,3]: - y[0,3] + r[0,3] <= 0
 mccormick2[1,0]: - y[1,0] + r[1,0] <= 0
 mccormick2[1,2]: - y[1,2] + r[1,2] <= 0
 mccormick2[1,3]: - y[1,3] + r[1,3] <= 0
 mccormick2[1,4]: - y[1,4] + r[1,4] <= 0
 mccormick2[2,0]: - y[2,0] + r[2,0] <= 0
 mccormick2[2,1]: - y[2,1] + r[2,1] <= 0
 mccormick2[2,3]: - y[2,3] + r[2,3] <= 0
 mccormick2[2,4]: - y[2,4] + r[2,4] <= 0
 mccormick2[3,0]: - y[3,0] + r[3,0] <= 0
 mccormick2[3,1]: - y[3,1] + r[3,1] <= 0
 mccormick2[3,2]: - y[3,2] + r[3,2] <= 0
 mccormick2[4,1]: - y[4,1] + r[4,1] <= 0
 mccormick2[4,2]: - y[4,2] + r[4,2] <= 0
 mccormick3[0,1]: - y[0,1] - u[0,1] + r[0,1] >= -1
 mccormick3[0,2]: - y[0,2] - u[0,2] + r[0,2] >= -1
 mccormick3[0,3]: - y[0,3] - u[0,3] + r[0,3] >= -1
 mccormick3[1,0]: - y[1,0] - u[1,0] + r[1,0] >= -1
 mccormick3[1,2]: - y[1,2] - u[1,2] + r[1,2] >= -1
 mccormick3[1,3]: - y[1,3] - u[1,3] + r[1,3] >= -1
 mccormick3[1,4]: - y[1,4] - u[1,4] + r[1,4] >= -1
 mccormick3[2,0]: - y[2,0] - u[2,0] + r[2,0] >= -1
 mccormick3[2,1]: - y[2,1] - u[2,1] + r[2,1] >= -1
 mccormick3[2,3]: - y[2,3] - u[2,3] + r[2,3] >= -1
 mccormick3[2,4]: - y[2,4] - u[2,4] + r[2,4] >= -1
 mccormick3[3,0]: - y[3,0] - u[3,0] + r[3,0] >= -1
 mccormick3[3,1]: - y[3,1] - u[3,1] + r[3,1] >= -1
 mccormick3[3,2]: - y[3,2] - u[3,2] + r[3,2] >= -1
 mccormick3[4,1]: - y[4,1] - u[4,1] + r[4,1] >= -1
 mccormick3[4,2]: - y[4,2] - u[4,2] + r[4,2] >= -1
Bounds
Binaries
 y[0,1] y[0,2] y[0,3] y[1,0] y[1,2] y[1,3] y[1,4] y[2,0] y[2,1] y[2,3]
 y[2,4] y[3,0] y[3,1] y[3,2] y[4,1] y[4,2] x[0,1] x[0,2] x[0,3] x[1,0]
 x[1,2] x[1,3] x[1,4] x[2,0] x[2,1] x[2,3] x[2,4] x[3,0] x[3,1] x[3,2]
 x[4,1] x[4,2] u[0,1] u[0,2] u[0,3] u[1,0] u[1,2] u[1,3] u[1,4] u[2,0]
 u[2,1] u[2,3] u[2,4] u[3,0] u[3,1] u[3,2] u[4,1] u[4,2] r[0,1] r[0,2]
 r[0,3] r[1,0] r[1,2] r[1,3] r[1,4] r[2,0] r[2,1] r[2,3] r[2,4] r[3,0]
 r[3,1] r[3,2] r[4,1] r[4,2]
End
