instances/shortest_path/discrete_knapsack_uncertainty/nohadani_5_5.kp
60948
93

[4.631490733983563 3.104466931702093 4.347588720256277 1.9238328249277226 5.091886390572257 3.4582041531818373 2.9775683354338818 0.36814548209720704 3.769856364162732 3.0664788280065656 5.592911123256662 0.6602382431307174 0.7409499170531574 4.445043005563042 4.6917541107995815 2.5362800463505333]

[1 89 83 12 9 39 66 89 58 23 21 68 89 93 66 46]
